(set-info :smt-lib-version 2.6)
(set-logic QF_NIA)
(set-info :source |
Generated by: Cristina Borralleras, Daniel Larraz, Albert Oliveras, Enric Rodriguez-Carbonell, Albert Rubio
Generated on: 2017-04-27
Generator: VeryMax
Application: Termination proving
Target solver: barcelogic
|)
(set-info :license "https://creativecommons.org/licenses/by/4.0/")
(set-info :category "industrial")
(set-info :status unknown)
(declare-fun Nl6arg11 () Int)
(declare-fun Nl6arg21 () Int)
(declare-fun Nl6arg31 () Int)
(declare-fun Nl6arg41 () Int)
(declare-fun Nl6arg12 () Int)
(declare-fun Nl6arg22 () Int)
(declare-fun Nl6arg32 () Int)
(declare-fun Nl6arg42 () Int)
(declare-fun Nl6arg13 () Int)
(declare-fun Nl6arg23 () Int)
(declare-fun Nl6arg33 () Int)
(declare-fun Nl6arg43 () Int)
(declare-fun lam0n0 () Int)
(declare-fun lam0n1 () Int)
(declare-fun lam0n2 () Int)
(declare-fun lam0n3 () Int)
(declare-fun lam0n4 () Int)
(declare-fun lam0n5 () Int)
(declare-fun lam0n6 () Int)
(declare-fun lam0n7 () Int)
(declare-fun lam0n8 () Int)
(declare-fun lam0n9 () Int)
(declare-fun lam0n10 () Int)
(declare-fun lam0n11 () Int)
(declare-fun lam0n12 () Int)
(declare-fun lam0n13 () Int)
(declare-fun lam0n14 () Int)
(declare-fun lam0n15 () Int)
(declare-fun lam0n16 () Int)
(declare-fun Nl6CT1 () Int)
(declare-fun Nl6CT2 () Int)
(declare-fun Nl6CT3 () Int)
(declare-fun lam1n0 () Int)
(declare-fun lam1n1 () Int)
(declare-fun lam1n2 () Int)
(declare-fun lam1n3 () Int)
(declare-fun lam1n4 () Int)
(declare-fun lam1n5 () Int)
(declare-fun lam1n6 () Int)
(declare-fun lam1n7 () Int)
(declare-fun lam1n8 () Int)
(declare-fun lam1n9 () Int)
(declare-fun lam1n10 () Int)
(declare-fun lam1n11 () Int)
(declare-fun lam1n12 () Int)
(declare-fun lam1n13 () Int)
(declare-fun lam1n14 () Int)
(declare-fun lam1n15 () Int)
(declare-fun lam1n16 () Int)
(declare-fun lam2n0 () Int)
(declare-fun lam2n1 () Int)
(declare-fun lam2n2 () Int)
(declare-fun lam2n3 () Int)
(declare-fun lam2n4 () Int)
(declare-fun lam2n5 () Int)
(declare-fun lam2n6 () Int)
(declare-fun lam2n7 () Int)
(declare-fun lam2n8 () Int)
(declare-fun lam2n9 () Int)
(declare-fun lam2n10 () Int)
(declare-fun lam2n11 () Int)
(declare-fun lam2n12 () Int)
(declare-fun lam2n13 () Int)
(declare-fun lam2n14 () Int)
(declare-fun lam2n15 () Int)
(declare-fun lam2n16 () Int)
(declare-fun lam3n0 () Int)
(declare-fun lam3n1 () Int)
(declare-fun lam3n2 () Int)
(declare-fun lam3n3 () Int)
(declare-fun lam3n4 () Int)
(declare-fun lam3n5 () Int)
(declare-fun lam3n6 () Int)
(declare-fun lam3n7 () Int)
(declare-fun lam3n8 () Int)
(declare-fun lam3n9 () Int)
(declare-fun lam3n10 () Int)
(declare-fun lam3n11 () Int)
(declare-fun lam3n12 () Int)
(declare-fun lam3n13 () Int)
(declare-fun lam3n14 () Int)
(declare-fun lam3n15 () Int)
(declare-fun lam3n16 () Int)
(declare-fun lam4n0 () Int)
(declare-fun lam4n1 () Int)
(declare-fun lam4n2 () Int)
(declare-fun lam4n3 () Int)
(declare-fun lam4n4 () Int)
(declare-fun lam4n5 () Int)
(declare-fun lam4n6 () Int)
(declare-fun lam4n7 () Int)
(declare-fun lam5n0 () Int)
(declare-fun lam5n1 () Int)
(declare-fun lam5n2 () Int)
(declare-fun lam5n3 () Int)
(declare-fun lam5n4 () Int)
(declare-fun lam5n5 () Int)
(declare-fun lam5n6 () Int)
(declare-fun lam5n7 () Int)
(declare-fun lam6n0 () Int)
(declare-fun lam6n1 () Int)
(declare-fun lam6n2 () Int)
(declare-fun lam6n3 () Int)
(declare-fun lam6n4 () Int)
(declare-fun lam6n5 () Int)
(declare-fun lam6n6 () Int)
(declare-fun lam6n7 () Int)
(declare-fun undef57 () Int)
(declare-fun undef45 () Int)
(declare-fun undef58 () Int)
(declare-fun undef59 () Int)
(declare-fun undef33 () Int)
(declare-fun undef34 () Int)
(declare-fun undef35 () Int)
(declare-fun undef36 () Int)
(declare-fun lam7n0 () Int)
(declare-fun lam7n1 () Int)
(declare-fun lam7n2 () Int)
(declare-fun lam7n3 () Int)
(declare-fun lam7n4 () Int)
(declare-fun lam7n5 () Int)
(declare-fun lam7n6 () Int)
(declare-fun lam7n7 () Int)
(declare-fun lam7n8 () Int)
(declare-fun lam7n9 () Int)
(declare-fun lam7n10 () Int)
(declare-fun lam8n0 () Int)
(declare-fun lam8n1 () Int)
(declare-fun lam8n2 () Int)
(declare-fun lam8n3 () Int)
(declare-fun lam8n4 () Int)
(declare-fun lam8n5 () Int)
(declare-fun lam8n6 () Int)
(declare-fun lam8n7 () Int)
(declare-fun lam8n8 () Int)
(declare-fun lam8n9 () Int)
(declare-fun lam8n10 () Int)
(assert ( and ( <= ( - 1 ) Nl6arg11 ) ( <= Nl6arg11 1 ) ( <= ( - 1 ) Nl6arg21 ) ( <= Nl6arg21 1 ) ( <= ( - 1 ) Nl6arg31 ) ( <= Nl6arg31 1 ) ( <= ( - 1 ) Nl6arg41 ) ( <= Nl6arg41 1 ) ( <= ( - 1 ) Nl6arg12 ) ( <= Nl6arg12 1 ) ( <= ( - 1 ) Nl6arg22 ) ( <= Nl6arg22 1 ) ( <= ( - 1 ) Nl6arg32 ) ( <= Nl6arg32 1 ) ( <= ( - 1 ) Nl6arg42 ) ( <= Nl6arg42 1 ) ( <= ( - 1 ) Nl6arg13 ) ( <= Nl6arg13 1 ) ( <= ( - 1 ) Nl6arg23 ) ( <= Nl6arg23 1 ) ( <= ( - 1 ) Nl6arg33 ) ( <= Nl6arg33 1 ) ( <= ( - 1 ) Nl6arg43 ) ( <= Nl6arg43 1 ) ))
(assert ( or ( and ( >= lam0n0 0 ) ( >= lam0n1 0 ) ( >= lam0n2 0 ) ( >= lam0n3 0 ) ( >= lam0n4 0 ) ( >= lam0n5 0 ) ( >= lam0n6 0 ) ( >= lam0n7 0 ) ( >= lam0n8 0 ) ( >= lam0n9 0 ) ( >= lam0n10 0 ) ( >= lam0n11 0 ) ( >= lam0n12 0 ) ( >= lam0n13 0 ) ( >= lam0n14 0 ) ( >= lam0n15 0 ) ( >= lam0n16 0 ) ( > ( + ( * 3 lam0n0 ) ( * 3 lam0n1 ) ( * 3 lam0n2 ) ( * 1 lam0n3 ) ( * 1 lam0n4 ) ( * 1 lam0n5 ) ( * 1 lam0n6 ) ( * 1 lam0n7 ) ( * 2 lam0n11 ) ( * 2 lam0n12 ) ( * 5 lam0n13 ) ( * Nl6CT1 lam0n14 ) ( * Nl6CT2 lam0n15 ) ( * Nl6CT3 lam0n16 ) ( - 1 ) ) 0 ) ( = ( + ( * ( - 1 ) lam0n0 ) ( * ( - 1 ) lam0n1 ) ( * ( - 1 ) lam0n11 ) ( * Nl6arg11 lam0n14 ) ( * Nl6arg12 lam0n15 ) ( * Nl6arg13 lam0n16 ) ) 0 ) ( = ( + ( * ( - 1 ) lam0n3 ) ( * ( - 1 ) lam0n4 ) ( * ( - 1 ) lam0n8 ) ( * Nl6arg21 lam0n14 ) ( * Nl6arg22 lam0n15 ) ( * Nl6arg23 lam0n16 ) ) 0 ) ( = ( + ( * Nl6arg31 lam0n14 ) ( * Nl6arg32 lam0n15 ) ( * Nl6arg33 lam0n16 ) ) 0 ) ( = ( + ( * Nl6arg41 lam0n14 ) ( * Nl6arg42 lam0n15 ) ( * Nl6arg43 lam0n16 ) ) 0 ) ( = ( + ( * ( - 1 ) lam0n5 ) ( * 1 lam0n8 ) ( * 1 lam0n11 ) ) 0 ) ( = ( + ( * 1 lam0n1 ) ( * 1 lam0n4 ) ( * ( - 1 ) lam0n9 ) ) 0 ) ( = ( + ( * ( - 1 ) lam0n6 ) ( * ( - 1 ) lam0n10 ) ( * ( - 1 ) lam0n13 ) ) 0 ) ( = ( + ( * ( - 1 ) lam0n2 ) ( * 1 lam0n10 ) ) 0 ) ( = ( + ( * 1 lam0n6 ) ( * ( - 1 ) lam0n12 ) ) 0 ) ( = ( * ( - 1 ) lam0n7 ) 0 ) ) ( and ( >= lam1n0 0 ) ( >= lam1n1 0 ) ( >= lam1n2 0 ) ( >= lam1n3 0 ) ( >= lam1n4 0 ) ( >= lam1n5 0 ) ( >= lam1n6 0 ) ( >= lam1n7 0 ) ( >= lam1n8 0 ) ( >= lam1n9 0 ) ( >= lam1n10 0 ) ( >= lam1n11 0 ) ( >= lam1n12 0 ) ( >= lam1n13 0 ) ( >= lam1n14 0 ) ( >= lam1n15 0 ) ( >= lam1n16 0 ) ( > ( + ( * 3 lam1n0 ) ( * 3 lam1n1 ) ( * 3 lam1n2 ) ( * 1 lam1n3 ) ( * 1 lam1n4 ) ( * 1 lam1n5 ) ( * 1 lam1n6 ) ( * 1 lam1n7 ) ( * 2 lam1n11 ) ( * 2 lam1n12 ) ( * 5 lam1n13 ) ( * Nl6CT1 lam1n14 ) ( * Nl6CT2 lam1n15 ) ( * Nl6CT3 lam1n16 ) ( - 1 ( + ( + ( + ( + Nl6CT1 ( * Nl6arg11 0 ) ) ( * Nl6arg21 0 ) ) ( * Nl6arg31 0 ) ) ( * Nl6arg41 0 ) ) ) ) 0 ) ( = ( + ( * ( - 1 ) lam1n0 ) ( * ( - 1 ) lam1n1 ) ( * ( - 1 ) lam1n11 ) ( * Nl6arg11 lam1n14 ) ( * Nl6arg12 lam1n15 ) ( * Nl6arg13 lam1n16 ) ) 0 ) ( = ( + ( * ( - 1 ) lam1n3 ) ( * ( - 1 ) lam1n4 ) ( * ( - 1 ) lam1n8 ) ( * Nl6arg21 lam1n14 ) ( * Nl6arg22 lam1n15 ) ( * Nl6arg23 lam1n16 ) ) 0 ) ( = ( + ( * Nl6arg31 lam1n14 ) ( * Nl6arg32 lam1n15 ) ( * Nl6arg33 lam1n16 ) ) 0 ) ( = ( + ( * Nl6arg41 lam1n14 ) ( * Nl6arg42 lam1n15 ) ( * Nl6arg43 lam1n16 ) ) 0 ) ( = ( + ( * ( - 1 ) lam1n5 ) ( * 1 lam1n8 ) ( * 1 lam1n11 ) ( - ( + 0 ( * Nl6arg11 1 ) ) ) ) 0 ) ( = ( + ( * 1 lam1n1 ) ( * 1 lam1n4 ) ( * ( - 1 ) lam1n9 ) ( - ( + 0 ( * Nl6arg21 1 ) ) ) ) 0 ) ( = ( - ( + 0 ( * Nl6arg31 1 ) ) ) 0 ) ( = ( - ( + 0 ( * Nl6arg41 1 ) ) ) 0 ) ( = ( + ( * ( - 1 ) lam1n6 ) ( * ( - 1 ) lam1n10 ) ( * ( - 1 ) lam1n13 ) ) 0 ) ( = ( + ( * ( - 1 ) lam1n2 ) ( * 1 lam1n10 ) ) 0 ) ( = ( + ( * 1 lam1n6 ) ( * ( - 1 ) lam1n12 ) ) 0 ) ( = ( * ( - 1 ) lam1n7 ) 0 ) ) ))
(assert ( or ( and ( >= lam0n0 0 ) ( >= lam0n1 0 ) ( >= lam0n2 0 ) ( >= lam0n3 0 ) ( >= lam0n4 0 ) ( >= lam0n5 0 ) ( >= lam0n6 0 ) ( >= lam0n7 0 ) ( >= lam0n8 0 ) ( >= lam0n9 0 ) ( >= lam0n10 0 ) ( >= lam0n11 0 ) ( >= lam0n12 0 ) ( >= lam0n13 0 ) ( >= lam0n14 0 ) ( >= lam0n15 0 ) ( >= lam0n16 0 ) ( > ( + ( * 3 lam0n0 ) ( * 3 lam0n1 ) ( * 3 lam0n2 ) ( * 1 lam0n3 ) ( * 1 lam0n4 ) ( * 1 lam0n5 ) ( * 1 lam0n6 ) ( * 1 lam0n7 ) ( * 2 lam0n11 ) ( * 2 lam0n12 ) ( * 5 lam0n13 ) ( * Nl6CT1 lam0n14 ) ( * Nl6CT2 lam0n15 ) ( * Nl6CT3 lam0n16 ) ( - 1 ) ) 0 ) ( = ( + ( * ( - 1 ) lam0n0 ) ( * ( - 1 ) lam0n1 ) ( * ( - 1 ) lam0n11 ) ( * Nl6arg11 lam0n14 ) ( * Nl6arg12 lam0n15 ) ( * Nl6arg13 lam0n16 ) ) 0 ) ( = ( + ( * ( - 1 ) lam0n3 ) ( * ( - 1 ) lam0n4 ) ( * ( - 1 ) lam0n8 ) ( * Nl6arg21 lam0n14 ) ( * Nl6arg22 lam0n15 ) ( * Nl6arg23 lam0n16 ) ) 0 ) ( = ( + ( * Nl6arg31 lam0n14 ) ( * Nl6arg32 lam0n15 ) ( * Nl6arg33 lam0n16 ) ) 0 ) ( = ( + ( * Nl6arg41 lam0n14 ) ( * Nl6arg42 lam0n15 ) ( * Nl6arg43 lam0n16 ) ) 0 ) ( = ( + ( * ( - 1 ) lam0n5 ) ( * 1 lam0n8 ) ( * 1 lam0n11 ) ) 0 ) ( = ( + ( * 1 lam0n1 ) ( * 1 lam0n4 ) ( * ( - 1 ) lam0n9 ) ) 0 ) ( = ( + ( * ( - 1 ) lam0n6 ) ( * ( - 1 ) lam0n10 ) ( * ( - 1 ) lam0n13 ) ) 0 ) ( = ( + ( * ( - 1 ) lam0n2 ) ( * 1 lam0n10 ) ) 0 ) ( = ( + ( * 1 lam0n6 ) ( * ( - 1 ) lam0n12 ) ) 0 ) ( = ( * ( - 1 ) lam0n7 ) 0 ) ) ( and ( >= lam2n0 0 ) ( >= lam2n1 0 ) ( >= lam2n2 0 ) ( >= lam2n3 0 ) ( >= lam2n4 0 ) ( >= lam2n5 0 ) ( >= lam2n6 0 ) ( >= lam2n7 0 ) ( >= lam2n8 0 ) ( >= lam2n9 0 ) ( >= lam2n10 0 ) ( >= lam2n11 0 ) ( >= lam2n12 0 ) ( >= lam2n13 0 ) ( >= lam2n14 0 ) ( >= lam2n15 0 ) ( >= lam2n16 0 ) ( > ( + ( * 3 lam2n0 ) ( * 3 lam2n1 ) ( * 3 lam2n2 ) ( * 1 lam2n3 ) ( * 1 lam2n4 ) ( * 1 lam2n5 ) ( * 1 lam2n6 ) ( * 1 lam2n7 ) ( * 2 lam2n11 ) ( * 2 lam2n12 ) ( * 5 lam2n13 ) ( * Nl6CT1 lam2n14 ) ( * Nl6CT2 lam2n15 ) ( * Nl6CT3 lam2n16 ) ( - 1 ( + ( + ( + ( + Nl6CT2 ( * Nl6arg12 0 ) ) ( * Nl6arg22 0 ) ) ( * Nl6arg32 0 ) ) ( * Nl6arg42 0 ) ) ) ) 0 ) ( = ( + ( * ( - 1 ) lam2n0 ) ( * ( - 1 ) lam2n1 ) ( * ( - 1 ) lam2n11 ) ( * Nl6arg11 lam2n14 ) ( * Nl6arg12 lam2n15 ) ( * Nl6arg13 lam2n16 ) ) 0 ) ( = ( + ( * ( - 1 ) lam2n3 ) ( * ( - 1 ) lam2n4 ) ( * ( - 1 ) lam2n8 ) ( * Nl6arg21 lam2n14 ) ( * Nl6arg22 lam2n15 ) ( * Nl6arg23 lam2n16 ) ) 0 ) ( = ( + ( * Nl6arg31 lam2n14 ) ( * Nl6arg32 lam2n15 ) ( * Nl6arg33 lam2n16 ) ) 0 ) ( = ( + ( * Nl6arg41 lam2n14 ) ( * Nl6arg42 lam2n15 ) ( * Nl6arg43 lam2n16 ) ) 0 ) ( = ( + ( * ( - 1 ) lam2n5 ) ( * 1 lam2n8 ) ( * 1 lam2n11 ) ( - ( + 0 ( * Nl6arg12 1 ) ) ) ) 0 ) ( = ( + ( * 1 lam2n1 ) ( * 1 lam2n4 ) ( * ( - 1 ) lam2n9 ) ( - ( + 0 ( * Nl6arg22 1 ) ) ) ) 0 ) ( = ( - ( + 0 ( * Nl6arg32 1 ) ) ) 0 ) ( = ( - ( + 0 ( * Nl6arg42 1 ) ) ) 0 ) ( = ( + ( * ( - 1 ) lam2n6 ) ( * ( - 1 ) lam2n10 ) ( * ( - 1 ) lam2n13 ) ) 0 ) ( = ( + ( * ( - 1 ) lam2n2 ) ( * 1 lam2n10 ) ) 0 ) ( = ( + ( * 1 lam2n6 ) ( * ( - 1 ) lam2n12 ) ) 0 ) ( = ( * ( - 1 ) lam2n7 ) 0 ) ) ))
(assert ( or ( and ( >= lam0n0 0 ) ( >= lam0n1 0 ) ( >= lam0n2 0 ) ( >= lam0n3 0 ) ( >= lam0n4 0 ) ( >= lam0n5 0 ) ( >= lam0n6 0 ) ( >= lam0n7 0 ) ( >= lam0n8 0 ) ( >= lam0n9 0 ) ( >= lam0n10 0 ) ( >= lam0n11 0 ) ( >= lam0n12 0 ) ( >= lam0n13 0 ) ( >= lam0n14 0 ) ( >= lam0n15 0 ) ( >= lam0n16 0 ) ( > ( + ( * 3 lam0n0 ) ( * 3 lam0n1 ) ( * 3 lam0n2 ) ( * 1 lam0n3 ) ( * 1 lam0n4 ) ( * 1 lam0n5 ) ( * 1 lam0n6 ) ( * 1 lam0n7 ) ( * 2 lam0n11 ) ( * 2 lam0n12 ) ( * 5 lam0n13 ) ( * Nl6CT1 lam0n14 ) ( * Nl6CT2 lam0n15 ) ( * Nl6CT3 lam0n16 ) ( - 1 ) ) 0 ) ( = ( + ( * ( - 1 ) lam0n0 ) ( * ( - 1 ) lam0n1 ) ( * ( - 1 ) lam0n11 ) ( * Nl6arg11 lam0n14 ) ( * Nl6arg12 lam0n15 ) ( * Nl6arg13 lam0n16 ) ) 0 ) ( = ( + ( * ( - 1 ) lam0n3 ) ( * ( - 1 ) lam0n4 ) ( * ( - 1 ) lam0n8 ) ( * Nl6arg21 lam0n14 ) ( * Nl6arg22 lam0n15 ) ( * Nl6arg23 lam0n16 ) ) 0 ) ( = ( + ( * Nl6arg31 lam0n14 ) ( * Nl6arg32 lam0n15 ) ( * Nl6arg33 lam0n16 ) ) 0 ) ( = ( + ( * Nl6arg41 lam0n14 ) ( * Nl6arg42 lam0n15 ) ( * Nl6arg43 lam0n16 ) ) 0 ) ( = ( + ( * ( - 1 ) lam0n5 ) ( * 1 lam0n8 ) ( * 1 lam0n11 ) ) 0 ) ( = ( + ( * 1 lam0n1 ) ( * 1 lam0n4 ) ( * ( - 1 ) lam0n9 ) ) 0 ) ( = ( + ( * ( - 1 ) lam0n6 ) ( * ( - 1 ) lam0n10 ) ( * ( - 1 ) lam0n13 ) ) 0 ) ( = ( + ( * ( - 1 ) lam0n2 ) ( * 1 lam0n10 ) ) 0 ) ( = ( + ( * 1 lam0n6 ) ( * ( - 1 ) lam0n12 ) ) 0 ) ( = ( * ( - 1 ) lam0n7 ) 0 ) ) ( and ( >= lam3n0 0 ) ( >= lam3n1 0 ) ( >= lam3n2 0 ) ( >= lam3n3 0 ) ( >= lam3n4 0 ) ( >= lam3n5 0 ) ( >= lam3n6 0 ) ( >= lam3n7 0 ) ( >= lam3n8 0 ) ( >= lam3n9 0 ) ( >= lam3n10 0 ) ( >= lam3n11 0 ) ( >= lam3n12 0 ) ( >= lam3n13 0 ) ( >= lam3n14 0 ) ( >= lam3n15 0 ) ( >= lam3n16 0 ) ( > ( + ( * 3 lam3n0 ) ( * 3 lam3n1 ) ( * 3 lam3n2 ) ( * 1 lam3n3 ) ( * 1 lam3n4 ) ( * 1 lam3n5 ) ( * 1 lam3n6 ) ( * 1 lam3n7 ) ( * 2 lam3n11 ) ( * 2 lam3n12 ) ( * 5 lam3n13 ) ( * Nl6CT1 lam3n14 ) ( * Nl6CT2 lam3n15 ) ( * Nl6CT3 lam3n16 ) ( - 1 ( + ( + ( + ( + Nl6CT3 ( * Nl6arg13 0 ) ) ( * Nl6arg23 0 ) ) ( * Nl6arg33 0 ) ) ( * Nl6arg43 0 ) ) ) ) 0 ) ( = ( + ( * ( - 1 ) lam3n0 ) ( * ( - 1 ) lam3n1 ) ( * ( - 1 ) lam3n11 ) ( * Nl6arg11 lam3n14 ) ( * Nl6arg12 lam3n15 ) ( * Nl6arg13 lam3n16 ) ) 0 ) ( = ( + ( * ( - 1 ) lam3n3 ) ( * ( - 1 ) lam3n4 ) ( * ( - 1 ) lam3n8 ) ( * Nl6arg21 lam3n14 ) ( * Nl6arg22 lam3n15 ) ( * Nl6arg23 lam3n16 ) ) 0 ) ( = ( + ( * Nl6arg31 lam3n14 ) ( * Nl6arg32 lam3n15 ) ( * Nl6arg33 lam3n16 ) ) 0 ) ( = ( + ( * Nl6arg41 lam3n14 ) ( * Nl6arg42 lam3n15 ) ( * Nl6arg43 lam3n16 ) ) 0 ) ( = ( + ( * ( - 1 ) lam3n5 ) ( * 1 lam3n8 ) ( * 1 lam3n11 ) ( - ( + 0 ( * Nl6arg13 1 ) ) ) ) 0 ) ( = ( + ( * 1 lam3n1 ) ( * 1 lam3n4 ) ( * ( - 1 ) lam3n9 ) ( - ( + 0 ( * Nl6arg23 1 ) ) ) ) 0 ) ( = ( - ( + 0 ( * Nl6arg33 1 ) ) ) 0 ) ( = ( - ( + 0 ( * Nl6arg43 1 ) ) ) 0 ) ( = ( + ( * ( - 1 ) lam3n6 ) ( * ( - 1 ) lam3n10 ) ( * ( - 1 ) lam3n13 ) ) 0 ) ( = ( + ( * ( - 1 ) lam3n2 ) ( * 1 lam3n10 ) ) 0 ) ( = ( + ( * 1 lam3n6 ) ( * ( - 1 ) lam3n12 ) ) 0 ) ( = ( * ( - 1 ) lam3n7 ) 0 ) ) ))
(assert ( and ( <= ( + 3 ( * ( - 1 ) undef57 ) ) 0 ) ( <= ( + 1 ( * ( - 1 ) undef45 ) undef58 ) 0 ) ( <= ( + 1 ( * ( - 1 ) undef59 ) ) 0 ) ( <= ( + ( * ( - 1 ) undef45 ) undef57 ) 0 ) ( <= ( + 4 ( * ( - 1 ) undef33 ) ) 0 ) ( <= ( + 2 ( * ( - 1 ) undef34 ) ) 0 ) ( <= ( + 2 ( * ( - 1 ) undef58 ) ) 0 ) ( <= ( + 5 ( * ( - 1 ) undef45 ) ) 0 ) ( <= ( + ( + ( + ( + ( + Nl6CT1 ( * Nl6arg11 0 ) ) ( * Nl6arg21 0 ) ) ( * Nl6arg31 0 ) ) ( * Nl6arg41 0 ) ) ( * ( + 0 ( * Nl6arg11 1 ) ) undef33 ) ( * ( + 0 ( * Nl6arg21 1 ) ) undef34 ) ( * ( + 0 ( * Nl6arg31 1 ) ) undef35 ) ( * ( + 0 ( * Nl6arg41 1 ) ) undef36 ) ) 0 ) ( <= ( + ( + ( + ( + ( + Nl6CT2 ( * Nl6arg12 0 ) ) ( * Nl6arg22 0 ) ) ( * Nl6arg32 0 ) ) ( * Nl6arg42 0 ) ) ( * ( + 0 ( * Nl6arg12 1 ) ) undef33 ) ( * ( + 0 ( * Nl6arg22 1 ) ) undef34 ) ( * ( + 0 ( * Nl6arg32 1 ) ) undef35 ) ( * ( + 0 ( * Nl6arg42 1 ) ) undef36 ) ) 0 ) ( <= ( + ( + ( + ( + ( + Nl6CT3 ( * Nl6arg13 0 ) ) ( * Nl6arg23 0 ) ) ( * Nl6arg33 0 ) ) ( * Nl6arg43 0 ) ) ( * ( + 0 ( * Nl6arg13 1 ) ) undef33 ) ( * ( + 0 ( * Nl6arg23 1 ) ) undef34 ) ( * ( + 0 ( * Nl6arg33 1 ) ) undef35 ) ( * ( + 0 ( * Nl6arg43 1 ) ) undef36 ) ) 0 ) ))
(assert ( or ( or ( and ( >= lam7n0 0 ) ( >= lam7n1 0 ) ( >= lam7n2 0 ) ( >= lam7n3 0 ) ( >= lam7n4 0 ) ( >= lam7n5 0 ) ( >= lam7n6 0 ) ( >= lam7n7 0 ) ( >= lam7n8 0 ) ( >= lam7n9 0 ) ( >= lam7n10 0 ) ( > ( + ( * 3 lam7n0 ) ( * 3 lam7n1 ) ( * 1 lam7n2 ) ( * 1 lam7n3 ) ( * 1 lam7n4 ) ( * 2 lam7n6 ) ( * 5 lam7n7 ) ( * Nl6CT1 lam7n8 ) ( * Nl6CT2 lam7n9 ) ( * Nl6CT3 lam7n10 ) ( - 1 ) ) 0 ) ( = ( + ( * ( - 1 ) lam7n0 ) ( * Nl6arg11 lam7n8 ) ( * Nl6arg12 lam7n9 ) ( * Nl6arg13 lam7n10 ) ) 0 ) ( = ( + ( * ( - 1 ) lam7n2 ) ( * Nl6arg21 lam7n8 ) ( * Nl6arg22 lam7n9 ) ( * Nl6arg23 lam7n10 ) ) 0 ) ( = ( + ( * Nl6arg31 lam7n8 ) ( * Nl6arg32 lam7n9 ) ( * Nl6arg33 lam7n10 ) ) 0 ) ( = ( + ( * Nl6arg41 lam7n8 ) ( * Nl6arg42 lam7n9 ) ( * Nl6arg43 lam7n10 ) ) 0 ) ( = ( + ( * ( - 1 ) lam7n3 ) ( * ( - 1 ) lam7n5 ) ( * ( - 1 ) lam7n7 ) ) 0 ) ( = ( + ( * ( - 1 ) lam7n1 ) ( * 1 lam7n5 ) ) 0 ) ( = ( + ( * 1 lam7n3 ) ( * ( - 1 ) lam7n6 ) ) 0 ) ( = ( * ( - 1 ) lam7n4 ) 0 ) ) ( and ( >= lam8n0 0 ) ( >= lam8n1 0 ) ( >= lam8n2 0 ) ( >= lam8n3 0 ) ( >= lam8n4 0 ) ( >= lam8n5 0 ) ( >= lam8n6 0 ) ( >= lam8n7 0 ) ( >= lam8n8 0 ) ( >= lam8n9 0 ) ( >= lam8n10 0 ) ( > ( + ( * 3 lam8n0 ) ( * 3 lam8n1 ) ( * 1 lam8n2 ) ( * 1 lam8n3 ) ( * 1 lam8n4 ) ( * 2 lam8n6 ) ( * 5 lam8n7 ) ( * Nl6CT1 lam8n8 ) ( * Nl6CT2 lam8n9 ) ( * Nl6CT3 lam8n10 ) 3 ) 0 ) ( = ( + ( * ( - 1 ) lam8n0 ) ( * Nl6arg11 lam8n8 ) ( * Nl6arg12 lam8n9 ) ( * Nl6arg13 lam8n10 ) ) 0 ) ( = ( + ( * ( - 1 ) lam8n2 ) ( * Nl6arg21 lam8n8 ) ( * Nl6arg22 lam8n9 ) ( * Nl6arg23 lam8n10 ) ) 0 ) ( = ( + ( * Nl6arg31 lam8n8 ) ( * Nl6arg32 lam8n9 ) ( * Nl6arg33 lam8n10 ) ) 0 ) ( = ( + ( * Nl6arg41 lam8n8 ) ( * Nl6arg42 lam8n9 ) ( * Nl6arg43 lam8n10 ) ) 0 ) ( = ( + ( * ( - 1 ) lam8n3 ) ( * ( - 1 ) lam8n5 ) ( * ( - 1 ) lam8n7 ) ) 0 ) ( = ( + ( * ( - 1 ) lam8n1 ) ( * 1 lam8n5 ) ( - 1 ) ) 0 ) ( = ( + ( * 1 lam8n3 ) ( * ( - 1 ) lam8n6 ) ) 0 ) ( = ( * ( - 1 ) lam8n4 ) 0 ) ) ) ( and ( and ( <= ( + 3 ( * ( - 1 ) undef57 ) ) 0 ) ( <= ( + 1 ( * ( - 1 ) undef45 ) undef58 ) 0 ) ( <= ( + 1 ( * ( - 1 ) undef59 ) ) 0 ) ( <= ( + ( * ( - 1 ) undef45 ) undef57 ) 0 ) ( <= ( + 4 ( * ( - 1 ) undef33 ) ) 0 ) ( <= ( + 2 ( * ( - 1 ) undef34 ) ) 0 ) ( <= ( + 2 ( * ( - 1 ) undef58 ) ) 0 ) ( <= ( + 5 ( * ( - 1 ) undef45 ) ) 0 ) ( <= ( + ( + ( + ( + ( + Nl6CT1 ( * Nl6arg11 0 ) ) ( * Nl6arg21 0 ) ) ( * Nl6arg31 0 ) ) ( * Nl6arg41 0 ) ) ( * ( + 0 ( * Nl6arg11 1 ) ) undef33 ) ( * ( + 0 ( * Nl6arg21 1 ) ) undef34 ) ( * ( + 0 ( * Nl6arg31 1 ) ) undef35 ) ( * ( + 0 ( * Nl6arg41 1 ) ) undef36 ) ) 0 ) ( <= ( + ( + ( + ( + ( + Nl6CT2 ( * Nl6arg12 0 ) ) ( * Nl6arg22 0 ) ) ( * Nl6arg32 0 ) ) ( * Nl6arg42 0 ) ) ( * ( + 0 ( * Nl6arg12 1 ) ) undef33 ) ( * ( + 0 ( * Nl6arg22 1 ) ) undef34 ) ( * ( + 0 ( * Nl6arg32 1 ) ) undef35 ) ( * ( + 0 ( * Nl6arg42 1 ) ) undef36 ) ) 0 ) ( <= ( + ( + ( + ( + ( + Nl6CT3 ( * Nl6arg13 0 ) ) ( * Nl6arg23 0 ) ) ( * Nl6arg33 0 ) ) ( * Nl6arg43 0 ) ) ( * ( + 0 ( * Nl6arg13 1 ) ) undef33 ) ( * ( + 0 ( * Nl6arg23 1 ) ) undef34 ) ( * ( + 0 ( * Nl6arg33 1 ) ) undef35 ) ( * ( + 0 ( * Nl6arg43 1 ) ) undef36 ) ) 0 ) ) ( and ( >= lam0n0 0 ) ( >= lam0n1 0 ) ( >= lam0n2 0 ) ( >= lam0n3 0 ) ( >= lam0n4 0 ) ( >= lam0n5 0 ) ( >= lam0n6 0 ) ( >= lam0n7 0 ) ( >= lam0n8 0 ) ( >= lam0n9 0 ) ( >= lam0n10 0 ) ( >= lam0n11 0 ) ( >= lam0n12 0 ) ( >= lam0n13 0 ) ( >= lam0n14 0 ) ( >= lam0n15 0 ) ( >= lam0n16 0 ) ( > ( + ( * 3 lam0n0 ) ( * 3 lam0n1 ) ( * 3 lam0n2 ) ( * 1 lam0n3 ) ( * 1 lam0n4 ) ( * 1 lam0n5 ) ( * 1 lam0n6 ) ( * 1 lam0n7 ) ( * 2 lam0n11 ) ( * 2 lam0n12 ) ( * 5 lam0n13 ) ( * Nl6CT1 lam0n14 ) ( * Nl6CT2 lam0n15 ) ( * Nl6CT3 lam0n16 ) ( - 1 ) ) 0 ) ( = ( + ( * ( - 1 ) lam0n0 ) ( * ( - 1 ) lam0n1 ) ( * ( - 1 ) lam0n11 ) ( * Nl6arg11 lam0n14 ) ( * Nl6arg12 lam0n15 ) ( * Nl6arg13 lam0n16 ) ) 0 ) ( = ( + ( * ( - 1 ) lam0n3 ) ( * ( - 1 ) lam0n4 ) ( * ( - 1 ) lam0n8 ) ( * Nl6arg21 lam0n14 ) ( * Nl6arg22 lam0n15 ) ( * Nl6arg23 lam0n16 ) ) 0 ) ( = ( + ( * Nl6arg31 lam0n14 ) ( * Nl6arg32 lam0n15 ) ( * Nl6arg33 lam0n16 ) ) 0 ) ( = ( + ( * Nl6arg41 lam0n14 ) ( * Nl6arg42 lam0n15 ) ( * Nl6arg43 lam0n16 ) ) 0 ) ( = ( + ( * ( - 1 ) lam0n5 ) ( * 1 lam0n8 ) ( * 1 lam0n11 ) ) 0 ) ( = ( + ( * 1 lam0n1 ) ( * 1 lam0n4 ) ( * ( - 1 ) lam0n9 ) ) 0 ) ( = ( + ( * ( - 1 ) lam0n6 ) ( * ( - 1 ) lam0n10 ) ( * ( - 1 ) lam0n13 ) ) 0 ) ( = ( + ( * ( - 1 ) lam0n2 ) ( * 1 lam0n10 ) ) 0 ) ( = ( + ( * 1 lam0n6 ) ( * ( - 1 ) lam0n12 ) ) 0 ) ( = ( * ( - 1 ) lam0n7 ) 0 ) ) ) ))
(check-sat)
(exit)
